<number of tasks>
250

<cycle time>
1000

<order strength>
0.895


<task times>
1 584
2 270
3 162
4 259
5 118
6 412
7 254
8 308
9 451
10 23
11 99
12 22
13 31
14 129
15 48
16 122
17 234
18 107
19 553
20 50
21 161
22 516
23 287
24 166
25 534
26 483
27 295
28 220
29 354
30 74
31 502
32 149
33 71
34 34
35 387
36 22
37 157
38 449
39 78
40 513
41 263
42 67
43 252
44 106
45 280
46 221
47 489
48 295
49 120
50 26
51 234
52 83
53 135
54 361
55 527
56 162
57 166
58 45
59 126
60 430
61 468
62 152
63 395
64 174
65 293
66 51
67 182
68 195
69 198
70 210
71 49
72 55
73 177
74 25
75 233
76 181
77 251
78 306
79 76
80 146
81 264
82 209
83 101
84 387
85 331
86 197
87 50
88 120
89 29
90 179
91 73
92 83
93 285
94 119
95 132
96 577
97 537
98 333
99 186
100 516
101 448
102 75
103 417
104 205
105 480
106 202
107 130
108 479
109 69
110 76
111 415
112 130
113 262
114 255
115 96
116 475
117 112
118 172
119 90
120 179
121 518
122 79
123 252
124 485
125 91
126 129
127 272
128 67
129 377
130 615
131 73
132 116
133 142
134 136
135 39
136 421
137 33
138 556
139 277
140 463
141 186
142 541
143 249
144 172
145 206
146 395
147 170
148 209
149 468
150 79
151 498
152 264
153 639
154 286
155 454
156 268
157 253
158 177
159 538
160 161
161 30
162 102
163 133
164 550
165 183
166 42
167 136
168 79
169 133
170 485
171 46
172 85
173 52
174 255
175 74
176 25
177 524
178 96
179 216
180 152
181 506
182 199
183 118
184 49
185 336
186 280
187 233
188 243
189 403
190 195
191 92
192 29
193 284
194 65
195 378
196 133
197 228
198 206
199 291
200 116
201 78
202 146
203 76
204 473
205 526
206 180
207 115
208 32
209 46
210 192
211 85
212 237
213 323
214 395
215 331
216 240
217 173
218 64
219 198
220 321
221 172
222 110
223 77
224 410
225 168
226 411
227 70
228 81
229 163
230 205
231 366
232 491
233 92
234 85
235 239
236 226
237 237
238 102
239 35
240 35
241 430
242 228
243 25
244 136
245 182
246 246
247 134
248 70
249 438
250 134

<precedence relations>
1,6
1,7
2,5
2,6
2,7
3,5
3,6
3,7
4,5
4,6
4,7
5,8
5,9
5,10
6,8
6,9
6,10
7,8
7,9
8,11
8,12
8,13
8,14
8,15
9,11
9,12
9,13
9,14
9,15
10,11
10,12
10,13
11,16
11,19
11,20
12,16
12,20
13,16
13,17
13,18
13,19
13,20
14,33
14,34
14,35
14,36
15,16
15,17
15,18
15,19
15,20
16,21
16,22
16,23
16,24
16,25
17,21
17,22
17,23
17,24
17,25
18,21
18,22
18,23
18,24
18,25
19,21
19,22
19,23
19,24
19,25
20,21
20,22
20,23
20,24
20,25
21,26
21,27
21,28
21,29
22,30
22,31
23,26
23,27
23,28
23,29
23,30
23,31
24,26
24,28
24,29
25,26
25,30
25,31
26,32
26,33
26,34
26,35
27,50
27,55
28,32
28,33
28,35
28,36
29,32
29,33
29,34
29,35
29,36
30,32
30,33
30,34
30,35
30,36
31,32
31,33
31,34
31,35
31,36
32,37
32,38
32,39
32,40
32,41
33,37
33,38
33,39
33,40
33,41
34,37
34,38
34,39
34,40
34,41
35,37
35,38
35,39
35,40
35,41
36,37
36,38
36,39
36,40
36,41
37,42
37,43
37,45
37,46
38,42
38,43
38,44
38,45
39,42
39,45
39,46
40,42
40,43
40,44
40,45
40,46
41,42
41,43
42,47
42,48
42,49
42,50
42,51
43,47
43,48
43,49
43,50
43,51
44,47
44,48
44,49
44,50
44,51
45,47
45,48
46,47
46,72
46,73
47,52
48,53
48,55
49,54
49,56
49,57
49,58
49,60
50,52
50,53
50,54
51,52
51,69
52,56
52,74
52,75
53,56
53,57
53,58
53,59
53,60
53,61
54,59
54,61
54,70
55,56
55,111
55,123
56,122
57,99
57,104
57,106
58,62
58,63
58,64
58,65
58,66
59,88
59,99
60,62
60,63
60,64
60,65
60,66
61,62
61,63
61,64
62,67
62,71
62,72
63,67
63,68
63,69
64,67
64,69
64,72
65,68
65,72
66,67
66,68
66,69
66,70
66,71
66,72
67,73
67,74
67,75
68,73
68,74
68,75
69,73
69,74
69,75
70,114
70,117
70,119
70,120
71,73
71,74
72,103
73,76
73,77
73,78
74,76
74,77
74,78
74,79
74,80
75,79
75,80
76,115
77,83
78,81
78,82
78,84
79,81
79,82
79,83
79,84
80,81
80,82
80,83
81,85
82,85
82,86
83,85
83,86
84,85
84,86
85,87
85,88
85,89
86,87
86,88
86,89
86,90
87,91
87,92
87,93
87,94
88,91
89,95
90,91
90,92
90,93
90,94
91,95
91,96
91,97
92,96
92,99
93,95
93,96
93,98
93,99
94,95
94,97
94,98
94,99
95,100
95,101
95,102
96,100
96,101
96,102
97,100
97,101
97,102
98,100
98,101
98,102
99,100
100,103
101,103
101,104
101,105
101,106
102,104
102,106
103,107
103,108
103,109
103,110
104,107
104,108
104,109
104,110
105,107
105,108
106,110
107,111
107,112
107,113
107,115
108,111
108,112
108,113
108,114
108,115
109,111
109,112
109,113
110,111
110,114
110,123
111,118
111,119
111,128
112,116
112,117
112,118
112,119
112,120
113,116
114,141
114,148
114,150
115,117
115,118
116,121
116,128
117,121
117,122
117,123
118,121
118,122
119,135
119,142
120,121
120,123
120,124
121,125
121,126
121,127
121,129
121,130
122,124
122,139
122,141
122,142
123,127
123,128
123,129
123,130
124,131
124,134
124,167
125,134
125,159
126,170
126,180
126,181
127,131
127,132
127,137
128,133
128,141
128,146
129,131
129,132
129,133
129,134
130,155
131,135
131,174
132,135
132,136
132,138
133,135
133,137
134,174
135,145
135,150
135,171
136,198
137,139
137,140
138,139
138,140
138,141
138,142
139,143
139,144
140,143
140,157
140,165
141,147
142,143
142,145
142,146
143,151
144,147
144,148
144,150
145,149
146,147
146,150
147,152
147,154
148,152
148,153
149,156
149,162
150,152
150,155
151,152
151,156
152,161
152,164
153,157
154,157
154,158
154,159
155,169
156,160
156,194
157,164
157,166
157,167
158,163
158,165
160,168
160,188
161,162
161,163
161,196
162,173
163,170
164,169
165,169
165,172
166,191
167,171
167,174
167,177
167,181
168,191
169,175
169,176
169,178
170,175
170,177
171,175
172,182
173,185
173,236
174,178
175,191
176,179
176,181
177,212
177,221
178,179
178,180
179,183
179,186
180,182
180,184
180,192
181,182
181,185
181,195
182,191
182,196
183,187
183,209
184,188
184,189
185,227
185,248
186,190
188,193
188,196
188,212
189,194
189,224
190,192
191,197
192,195
192,196
192,197
193,195
194,196
195,201
195,206
196,234
196,239
196,245
197,198
197,199
197,200
197,201
198,202
198,203
199,204
200,206
201,210
201,216
201,220
201,228
202,205
202,207
202,209
202,225
203,208
203,212
204,206
204,210
204,212
205,232
206,213
206,214
206,215
206,216
206,217
207,230
208,211
209,211
209,212
209,221
210,213
210,215
210,240
211,224
211,232
212,217
213,230
213,238
214,220
214,228
215,225
215,246
216,218
216,219
216,221
217,223
217,242
218,229
219,236
220,222
220,224
221,242
222,225
222,226
223,228
223,229
224,226
224,227
225,248
225,249
227,230
228,231
228,232
228,234
229,231
229,233
230,239
231,236
231,240
231,245
232,237
233,238
234,235
238,243
239,241
239,242
239,244
240,241
242,246
243,245
245,247
245,248
245,249
245,250

<end>
